File: D:\ML4VRP2024\Instances\CVRP\json\X-n110-k13.json exists.
Route #1: 1 79 90 16 29 78 13 
Route #2: 71 80 30 2 76 83 22 61 60 104 
Route #3: 3 38 105 32 74 20 92 97 106 
Route #4: 6 109 18 84 24 4 87 26 77 
Route #5: 5 51 85 11 15 53 98 66 
Route #6: 23 70 44 81 94 7 107 57 
Route #7: 49 8 62 100 10 86 63 72 
Route #8: 69 25 103 101 33 9 102 56 55 
Route #9: 19 58 12 41 68 88 21 75 
Route #10: 14 40 47 48 82 35 73 37 
Route #11: 52 50 39 28 31 17 95 96 54 
Route #12: 27 65 36 99 43 93 64 59 
Route #13: 91 108 46 89 45 34 67 42 
